NAME          knapsack  FREE
ROWS
 N  OBJROW
 L  constr(0)
COLUMNS
    var(0) OBJROW 385.         constr(0) 356.        
    var(1) OBJROW 67.          constr(0) 151.        
    var(2) OBJROW 8.           constr(0) 39.         
    var(3) OBJROW 244.         constr(0) 134.        
    var(4) OBJROW 448.         constr(0) 170.        
    var(5) OBJROW 127.         constr(0) 244.        
    var(6) OBJROW 96.          constr(0) 287.        
    var(7) OBJROW 455.         constr(0) 17.         
    var(8) OBJROW 404.         constr(0) 118.        
    var(9) OBJROW 395.         constr(0) 290.        
    var(10) OBJROW 103.         constr(0) 9.          
    var(11) OBJROW 226.         constr(0) 473.        
    var(12) OBJROW 383.         constr(0) 333.        
    var(13) OBJROW 390.         constr(0) 355.        
    var(14) OBJROW 240.         constr(0) 189.        
    var(15) OBJROW 245.         constr(0) 127.        
    var(16) OBJROW 193.         constr(0) 193.        
    var(17) OBJROW 309.         constr(0) 71.         
    var(18) OBJROW 430.         constr(0) 72.         
    var(19) OBJROW 381.         constr(0) 197.        
    var(20) OBJROW 213.         constr(0) 370.        
    var(21) OBJROW 120.         constr(0) 260.        
    var(22) OBJROW 366.         constr(0) 233.        
    var(23) OBJROW 253.         constr(0) 453.        
    var(24) OBJROW 32.          constr(0) 123.        
    var(25) OBJROW 333.         constr(0) 51.         
    var(26) OBJROW 156.         constr(0) 50.         
    var(27) OBJROW 451.         constr(0) 257.        
    var(28) OBJROW 186.         constr(0) 491.        
    var(29) OBJROW 189.         constr(0) 297.        
    var(30) OBJROW 121.         constr(0) 214.        
    var(31) OBJROW 56.          constr(0) 243.        
    var(32) OBJROW 26.          constr(0) 466.        
    var(33) OBJROW 320.         constr(0) 327.        
    var(34) OBJROW 249.         constr(0) 32.         
    var(35) OBJROW 242.         constr(0) 378.        
    var(36) OBJROW 87.          constr(0) 382.        
    var(37) OBJROW 47.          constr(0) 55.         
    var(38) OBJROW 375.         constr(0) 495.        
    var(39) OBJROW 100.         constr(0) 104.        
    var(40) OBJROW 159.         constr(0) 55.         
    var(41) OBJROW 338.         constr(0) 65.         
    var(42) OBJROW 69.          constr(0) 356.        
    var(43) OBJROW 371.         constr(0) 286.        
    var(44) OBJROW 104.         constr(0) 422.        
    var(45) OBJROW 360.         constr(0) 240.        
    var(46) OBJROW 439.         constr(0) 472.        
    var(47) OBJROW 477.         constr(0) 111.        
    var(48) OBJROW 268.         constr(0) 352.        
    var(49) OBJROW 99.          constr(0) 326.        
    var(50) OBJROW 421.         constr(0) 28.         
    var(51) OBJROW 363.         constr(0) 134.        
    var(52) OBJROW 295.         constr(0) 491.        
    var(53) OBJROW 37.          constr(0) 397.        
    var(54) OBJROW 141.         constr(0) 162.        
    var(55) OBJROW 71.          constr(0) 115.        
    var(56) OBJROW 108.         constr(0) 385.        
    var(57) OBJROW 72.          constr(0) 417.        
    var(58) OBJROW 50.          constr(0) 209.        
    var(59) OBJROW 223.         constr(0) 30.         
    var(60) OBJROW 418.         constr(0) 88.         
    var(61) OBJROW 48.          constr(0) 107.        
    var(62) OBJROW 95.          constr(0) 351.        
    var(63) OBJROW 414.         constr(0) 226.        
    var(64) OBJROW 387.         constr(0) 27.         
    var(65) OBJROW 486.         constr(0) 280.        
    var(66) OBJROW 300.         constr(0) 408.        
    var(67) OBJROW 24.          constr(0) 34.         
    var(68) OBJROW 12.          constr(0) 205.        
    var(69) OBJROW 386.         constr(0) 497.        
    var(70) OBJROW 183.         constr(0) 185.        
    var(71) OBJROW 148.         constr(0) 171.        
    var(72) OBJROW 422.         constr(0) 239.        
    var(73) OBJROW 365.         constr(0) 359.        
    var(74) OBJROW 430.         constr(0) 20.         
    var(75) OBJROW 94.          constr(0) 236.        
    var(76) OBJROW 243.         constr(0) 238.        
    var(77) OBJROW 112.         constr(0) 88.         
    var(78) OBJROW 60.          constr(0) 330.        
    var(79) OBJROW 64.          constr(0) 166.        
    var(80) OBJROW 235.         constr(0) 161.        
    var(81) OBJROW 347.         constr(0) 355.        
    var(82) OBJROW 435.         constr(0) 27.         
    var(83) OBJROW 141.         constr(0) 210.        
    var(84) OBJROW 215.         constr(0) 90.         
    var(85) OBJROW 170.         constr(0) 398.        
    var(86) OBJROW 383.         constr(0) 341.        
    var(87) OBJROW 295.         constr(0) 215.        
    var(88) OBJROW 90.          constr(0) 222.        
    var(89) OBJROW 136.         constr(0) 213.        
    var(90) OBJROW 365.         constr(0) 75.         
    var(91) OBJROW 121.         constr(0) 470.        
    var(92) OBJROW 129.         constr(0) 219.        
    var(93) OBJROW 387.         constr(0) 317.        
    var(94) OBJROW 337.         constr(0) 418.        
    var(95) OBJROW 123.         constr(0) 468.        
    var(96) OBJROW 499.         constr(0) 393.        
    var(97) OBJROW 409.         constr(0) 236.        
    var(98) OBJROW 286.         constr(0) 429.        
    var(99) OBJROW 247.         constr(0) 335.        
RHS
    RHS constr(0) 20574.      
BOUNDS
 UP BOUND var(0) 1.          
 UP BOUND var(1) 1.          
 UP BOUND var(2) 1.          
 UP BOUND var(3) 1.          
 UP BOUND var(4) 1.          
 UP BOUND var(5) 1.          
 UP BOUND var(6) 1.          
 UP BOUND var(7) 1.          
 UP BOUND var(8) 1.          
 UP BOUND var(9) 1.          
 UP BOUND var(10) 1.          
 UP BOUND var(11) 1.          
 UP BOUND var(12) 1.          
 UP BOUND var(13) 1.          
 UP BOUND var(14) 1.          
 UP BOUND var(15) 1.          
 UP BOUND var(16) 1.          
 UP BOUND var(17) 1.          
 UP BOUND var(18) 1.          
 UP BOUND var(19) 1.          
 UP BOUND var(20) 1.          
 UP BOUND var(21) 1.          
 UP BOUND var(22) 1.          
 UP BOUND var(23) 1.          
 UP BOUND var(24) 1.          
 UP BOUND var(25) 1.          
 UP BOUND var(26) 1.          
 UP BOUND var(27) 1.          
 UP BOUND var(28) 1.          
 UP BOUND var(29) 1.          
 UP BOUND var(30) 1.          
 UP BOUND var(31) 1.          
 UP BOUND var(32) 1.          
 UP BOUND var(33) 1.          
 UP BOUND var(34) 1.          
 UP BOUND var(35) 1.          
 UP BOUND var(36) 1.          
 UP BOUND var(37) 1.          
 UP BOUND var(38) 1.          
 UP BOUND var(39) 1.          
 UP BOUND var(40) 1.          
 UP BOUND var(41) 1.          
 UP BOUND var(42) 1.          
 UP BOUND var(43) 1.          
 UP BOUND var(44) 1.          
 UP BOUND var(45) 1.          
 UP BOUND var(46) 1.          
 UP BOUND var(47) 1.          
 UP BOUND var(48) 1.          
 UP BOUND var(49) 1.          
 UP BOUND var(50) 1.          
 UP BOUND var(51) 1.          
 UP BOUND var(52) 1.          
 UP BOUND var(53) 1.          
 UP BOUND var(54) 1.          
 UP BOUND var(55) 1.          
 UP BOUND var(56) 1.          
 UP BOUND var(57) 1.          
 UP BOUND var(58) 1.          
 UP BOUND var(59) 1.          
 UP BOUND var(60) 1.          
 UP BOUND var(61) 1.          
 UP BOUND var(62) 1.          
 UP BOUND var(63) 1.          
 UP BOUND var(64) 1.          
 UP BOUND var(65) 1.          
 UP BOUND var(66) 1.          
 UP BOUND var(67) 1.          
 UP BOUND var(68) 1.          
 UP BOUND var(69) 1.          
 UP BOUND var(70) 1.          
 UP BOUND var(71) 1.          
 UP BOUND var(72) 1.          
 UP BOUND var(73) 1.          
 UP BOUND var(74) 1.          
 UP BOUND var(75) 1.          
 UP BOUND var(76) 1.          
 UP BOUND var(77) 1.          
 UP BOUND var(78) 1.          
 UP BOUND var(79) 1.          
 UP BOUND var(80) 1.          
 UP BOUND var(81) 1.          
 UP BOUND var(82) 1.          
 UP BOUND var(83) 1.          
 UP BOUND var(84) 1.          
 UP BOUND var(85) 1.          
 UP BOUND var(86) 1.          
 UP BOUND var(87) 1.          
 UP BOUND var(88) 1.          
 UP BOUND var(89) 1.          
 UP BOUND var(90) 1.          
 UP BOUND var(91) 1.          
 UP BOUND var(92) 1.          
 UP BOUND var(93) 1.          
 UP BOUND var(94) 1.          
 UP BOUND var(95) 1.          
 UP BOUND var(96) 1.          
 UP BOUND var(97) 1.          
 UP BOUND var(98) 1.          
 UP BOUND var(99) 1.          
ENDATA
